dates = {'2021-11-02','2021-11-03','2021-11-04','2021-11-05','2021-11-06','2021-11-07','2021-11-08'};

daysOfWeek = [Tuesday,Wednesday,Thursday,Friday,Saturday,Sunday,Monday];

% For this week, how many people will be here.
numPeople = [38,52,52,59,44,44,54];

% Physical workers need 50 to 100 % more nutrients per day.
numPhysicalWorkers = [20.5,20.5,20.5,23.5,23.5,22.5,29.0];

% Males need +25% more nutrients per day.
numMen = [36,46,46,50,50,36,42];

% Num people who do not eat categories. contains = {none, meat, milk, gluten, egg, nut, seed, sugars}
numRefusals = [| 0,2,1,0,0,0,4,0 | 0,0,3,4,1,4,0,0 | 0,0,3,4,1,4,0,0 | 0,4,1,0,0,0,0,1 | 0,2,0,0,1,0,2,0 | 0,2,0,0,1,0,2,0 | 0,1,2,0,0,0,1,0 |];

